c Reduced graph for GEOM120 generated by Cyril Grelier
p edge 107 681
e 1 6
e 1 15
e 1 17
e 1 20
e 1 26
e 1 29
e 1 39
e 1 46
e 1 48
e 1 57
e 1 63
e 1 64
e 1 77
e 1 79
e 1 81
e 1 82
e 1 104
e 2 14
e 2 16
e 2 27
e 2 38
e 2 47
e 2 51
e 2 54
e 2 61
e 2 62
e 2 65
e 2 84
e 2 86
e 2 87
e 2 100
e 2 103
e 3 19
e 3 25
e 3 30
e 3 33
e 3 50
e 3 52
e 3 67
e 3 68
e 3 69
e 3 78
e 3 88
e 3 93
e 3 97
e 3 105
e 4 5
e 4 20
e 4 21
e 4 43
e 4 46
e 4 49
e 4 53
e 4 55
e 4 60
e 4 76
e 4 79
e 4 85
e 4 99
e 4 101
e 5 12
e 5 17
e 5 20
e 5 36
e 5 37
e 5 43
e 5 49
e 5 55
e 5 59
e 5 76
e 5 85
e 5 99
e 6 9
e 6 15
e 6 26
e 6 28
e 6 29
e 6 39
e 6 48
e 6 63
e 6 64
e 6 83
e 6 87
e 6 104
e 7 18
e 7 30
e 7 34
e 7 35
e 7 40
e 7 50
e 7 68
e 7 83
e 7 88
e 7 90
e 7 92
e 7 95
e 8 10
e 8 23
e 8 24
e 8 42
e 8 44
e 8 56
e 8 73
e 8 75
e 8 91
e 8 94
e 8 96
e 8 102
e 9 26
e 9 28
e 9 29
e 9 64
e 9 66
e 9 72
e 9 87
e 9 89
e 9 104
e 10 24
e 10 42
e 10 44
e 10 56
e 10 75
e 10 91
e 10 94
e 10 96
e 10 102
e 11 23
e 11 35
e 11 41
e 11 58
e 11 74
e 11 83
e 11 91
e 11 94
e 11 95
e 12 36
e 12 37
e 12 43
e 12 55
e 12 59
e 12 76
e 12 99
e 13 16
e 13 47
e 13 51
e 13 54
e 13 57
e 13 77
e 13 81
e 13 82
e 14 16
e 14 26
e 14 27
e 14 28
e 14 38
e 14 47
e 14 51
e 14 54
e 14 61
e 14 62
e 14 65
e 14 80
e 14 81
e 14 84
e 14 86
e 14 87
e 14 100
e 14 103
e 15 17
e 15 18
e 15 20
e 15 26
e 15 29
e 15 39
e 15 40
e 15 46
e 15 48
e 15 49
e 15 63
e 15 64
e 15 79
e 15 81
e 15 82
e 15 104
e 16 27
e 16 38
e 16 47
e 16 51
e 16 54
e 16 61
e 16 62
e 16 65
e 16 84
e 16 86
e 16 87
e 16 100
e 16 103
e 17 20
e 17 26
e 17 46
e 17 48
e 17 49
e 17 57
e 17 63
e 17 77
e 17 79
e 17 81
e 17 82
e 17 85
e 18 21
e 18 34
e 18 39
e 18 40
e 18 46
e 18 48
e 18 53
e 18 64
e 18 79
e 18 83
e 18 90
e 18 92
e 19 30
e 19 31
e 19 33
e 19 50
e 19 52
e 19 67
e 19 68
e 19 69
e 19 88
e 19 93
e 19 97
e 19 98
e 19 105
e 20 39
e 20 46
e 20 48
e 20 49
e 20 63
e 20 64
e 20 79
e 20 82
e 20 85
e 21 34
e 21 39
e 21 45
e 21 46
e 21 49
e 21 53
e 21 60
e 21 79
e 21 90
e 21 92
e 21 101
e 22 32
e 22 38
e 22 61
e 22 62
e 22 65
e 22 66
e 22 70
e 22 71
e 22 80
e 22 86
e 22 89
e 22 106
e 22 107
e 23 24
e 23 32
e 23 42
e 23 44
e 23 58
e 23 74
e 23 75
e 24 42
e 24 44
e 24 56
e 24 75
e 24 96
e 25 33
e 25 67
e 25 78
e 25 93
e 25 97
e 25 105
e 26 28
e 26 29
e 26 47
e 26 57
e 26 63
e 26 64
e 26 77
e 26 81
e 26 82
e 26 87
e 26 103
e 26 104
e 27 28
e 27 38
e 27 47
e 27 51
e 27 54
e 27 61
e 27 62
e 27 65
e 27 80
e 27 84
e 27 86
e 27 87
e 27 100
e 27 103
e 28 29
e 28 38
e 28 61
e 28 66
e 28 72
e 28 86
e 28 87
e 28 89
e 28 103
e 28 104
e 29 39
e 29 40
e 29 48
e 29 63
e 29 64
e 29 72
e 29 83
e 29 104
e 30 34
e 30 50
e 30 52
e 30 67
e 30 68
e 30 69
e 30 88
e 30 93
e 30 97
e 30 105
e 31 35
e 31 41
e 31 52
e 31 69
e 31 73
e 31 88
e 31 91
e 31 94
e 31 95
e 31 98
e 31 102
e 32 58
e 32 66
e 32 70
e 32 71
e 32 72
e 32 74
e 32 80
e 32 89
e 32 106
e 32 107
e 33 50
e 33 52
e 33 67
e 33 68
e 33 69
e 33 78
e 33 93
e 33 97
e 33 105
e 34 40
e 34 45
e 34 50
e 34 53
e 34 68
e 34 90
e 34 92
e 35 41
e 35 83
e 35 88
e 35 91
e 35 94
e 35 95
e 35 98
e 36 37
e 36 43
e 36 55
e 36 59
e 36 76
e 36 99
e 37 43
e 37 55
e 37 59
e 37 76
e 37 99
e 38 47
e 38 61
e 38 62
e 38 65
e 38 66
e 38 70
e 38 71
e 38 72
e 38 80
e 38 86
e 38 87
e 38 89
e 38 103
e 38 106
e 38 107
e 39 40
e 39 46
e 39 48
e 39 49
e 39 63
e 39 64
e 39 79
e 39 83
e 39 90
e 39 92
e 39 104
e 40 46
e 40 48
e 40 64
e 40 79
e 40 83
e 40 90
e 40 92
e 41 73
e 41 74
e 41 83
e 41 91
e 41 94
e 41 95
e 41 96
e 41 102
e 42 44
e 42 56
e 42 58
e 42 75
e 42 91
e 42 96
e 43 55
e 43 59
e 43 76
e 43 99
e 44 56
e 44 58
e 44 75
e 44 96
e 45 50
e 45 53
e 45 60
e 45 90
e 45 92
e 45 101
e 46 48
e 46 49
e 46 53
e 46 64
e 46 79
e 46 85
e 46 90
e 46 92
e 47 51
e 47 54
e 47 57
e 47 61
e 47 81
e 47 82
e 47 84
e 47 86
e 47 87
e 47 103
e 48 49
e 48 63
e 48 64
e 48 79
e 48 85
e 48 90
e 48 104
e 49 53
e 49 55
e 49 79
e 49 85
e 49 90
e 49 99
e 49 101
e 50 52
e 50 67
e 50 68
e 50 69
e 50 88
e 50 93
e 50 97
e 50 105
e 51 54
e 51 61
e 51 62
e 51 65
e 51 84
e 51 86
e 51 100
e 51 103
e 52 67
e 52 68
e 52 69
e 52 88
e 52 93
e 52 97
e 52 98
e 52 105
e 53 60
e 53 79
e 53 90
e 53 92
e 53 101
e 54 61
e 54 84
e 54 100
e 54 103
e 55 59
e 55 76
e 55 99
e 55 101
e 56 73
e 56 75
e 56 91
e 56 94
e 56 96
e 56 102
e 57 63
e 57 77
e 57 81
e 57 82
e 57 87
e 58 66
e 58 70
e 58 74
e 58 75
e 58 89
e 59 76
e 59 99
e 60 92
e 60 101
e 61 62
e 61 65
e 61 80
e 61 84
e 61 86
e 61 87
e 61 100
e 61 103
e 62 65
e 62 71
e 62 80
e 62 84
e 62 86
e 62 87
e 62 100
e 62 103
e 62 106
e 62 107
e 63 64
e 63 77
e 63 81
e 63 82
e 63 87
e 63 104
e 64 79
e 64 83
e 64 104
e 65 71
e 65 80
e 65 84
e 65 86
e 65 100
e 65 106
e 66 70
e 66 71
e 66 72
e 66 74
e 66 80
e 66 86
e 66 89
e 66 106
e 66 107
e 67 68
e 67 69
e 67 78
e 67 88
e 67 93
e 67 97
e 67 105
e 68 69
e 68 88
e 68 93
e 68 97
e 68 105
e 69 88
e 69 93
e 69 97
e 69 98
e 69 105
e 70 71
e 70 72
e 70 74
e 70 80
e 70 86
e 70 89
e 70 106
e 70 107
e 71 80
e 71 86
e 71 89
e 71 106
e 71 107
e 72 74
e 72 89
e 72 106
e 72 107
e 73 91
e 73 94
e 73 95
e 73 96
e 73 98
e 73 102
e 74 75
e 74 89
e 76 99
e 77 81
e 77 82
e 78 97
e 79 90
e 79 92
e 79 104
e 80 86
e 80 89
e 80 103
e 80 106
e 80 107
e 81 82
e 81 87
e 81 103
e 81 104
e 82 87
e 83 88
e 83 95
e 84 100
e 86 87
e 86 103
e 86 106
e 86 107
e 87 103
e 87 104
e 88 93
e 88 95
e 88 98
e 88 105
e 89 106
e 89 107
e 90 92
e 90 101
e 91 94
e 91 95
e 91 96
e 91 98
e 91 102
e 92 101
e 93 97
e 93 105
e 94 95
e 94 96
e 94 98
e 94 102
e 95 98
e 96 102
e 97 105
e 98 102
e 98 105
e 99 101
e 106 107
